17	4	3
12	13	13	14	43	20	22	
0	0	0	0	0	10	9	5	8	7	4	3	2	3	4
10	2	0	6	9	5	1	7	8	5	4	3	10	12	16
4	6	0	8	0	8	1	10	10	2	9	2	6	17
6	0	1	0	10	4	4	2	8	3	3	3	5	7	17
8	6	0	0	0	5	1	8	6	4	5	2	11	15
175	0	0	3	0	1	4	4	6	1	10	1	8
250	9	0	5	0	9	6	10	5	3	5	2	9	17
200	3	6	0	2	9	1	5	8	1	7	1	17
75	2	0	3	0	7	4	10	8	2	3	1	17
175	0	10	3	6	1	7	4	8	2	8	3	13	14	17
125	4	0	0	0	3	3	1	6	9	2	1	17
125	0	8	0	9	6	8	8	6	2	10	1	14
9	1	0	7	6	10	10	1	5	8	1	2	17	17
1	7	9	0	0	2	4	5	1	2	6	1	17
9	1	0	4	8	4	2	2	8	10	4	1	17
5	0	0	1	3	5	2	7	6	8	6	1	17
0	0	0	0	0	7	3	3	5	8	4	0
